(declare-rel inv2 (Int Int Int Int))
(declare-rel fail ())
(declare-var A Int)
(declare-var B Int)
(declare-var C Int)
(declare-var D Int)
(declare-var E Int)
(declare-var F Int)
(rule (=> (and (= F 0) (= E 0) (= 50000000 B) (= 100000000 A)) (inv2 F E B A)))
(rule (let ((a!1 (= D (ite (>= F B) (ite (>= F A) E (+ E 1)) 0))))
  (=> (and (inv2 F E B A) (= C (+ 1 F)) a!1) (inv2 C D B A))))
(rule (=> (and (inv2 F E B A) (>= F A) (not (= E B))) fail))
(query fail)

